p cnf 206 1020
c p weight 8 1.0 0
c p weight -8 1 0
c p weight 9 0 0
c p weight -9 1 0
c p weight 12 0 0
c p weight -12 1 0
c p weight 13 1.0 0
c p weight -13 1 0
c p weight 16 -0.13356123962598324 0
c p weight -16 1 0
c p weight 17 0.9910405618689735 0
c p weight -17 1 0
c p weight 20 0 0
c p weight -20 1 0
c p weight 21 1.0 0
c p weight -21 1 0
c p weight 24 -1.0 0
c p weight -24 1 0
c p weight 25 0 0
c p weight -25 1 0
c p weight 28 -0.6676589223122145 0
c p weight -28 1 0
c p weight 29 -0.7444673018050507 0
c p weight -29 1 0
c p weight 32 1.0 0
c p weight -32 1 0
c p weight 33 0 0
c p weight -33 1 0
c p weight 36 0 0
c p weight -36 1 0
c p weight 37 1.0 0
c p weight -37 1 0
c p weight 40 -0.9915114763949924 0
c p weight -40 1 0
c p weight 41 -0.13001919926311817 0
c p weight -41 1 0
c p weight 44 0 0
c p weight -44 1 0
c p weight 45 1.0 0
c p weight -45 1 0
c p weight 48 -1.0 0
c p weight -48 1 0
c p weight 49 0 0
c p weight -49 1 0
c p weight 52 -0.007515356911958461 0
c p weight -52 1 0
c p weight 53 -0.9999717593064745 0
c p weight -53 1 0
c p weight 59 1.0 0
c p weight -59 1 0
c p weight 60 0 0
c p weight -60 1 0
c p weight 63 0 0
c p weight -63 1 0
c p weight 64 1.0 0
c p weight -64 1 0
c p weight 67 0.9999560013841363 0
c p weight -67 1 0
c p weight 68 -0.009380580784219286 0
c p weight -68 1 0
c p weight 71 0 0
c p weight -71 1 0
c p weight 72 1.0 0
c p weight -72 1 0
c p weight 75 -1.0 0
c p weight -75 1 0
c p weight 76 0 0
c p weight -76 1 0
c p weight 79 0.3205694895363854 0
c p weight -79 1 0
c p weight 80 0.9472250009255357 0
c p weight -80 1 0
c p weight 83 1.0 0
c p weight -83 1 0
c p weight 84 0 0
c p weight -84 1 0
c p weight 87 0 0
c p weight -87 1 0
c p weight 88 1.0 0
c p weight -88 1 0
c p weight 91 -0.15769632003857545 0
c p weight -91 1 0
c p weight 92 -0.9874876559462863 0
c p weight -92 1 0
c p weight 95 0 0
c p weight -95 1 0
c p weight 96 1.0 0
c p weight -96 1 0
c p weight 99 -1.0 0
c p weight -99 1 0
c p weight 100 0 0
c p weight -100 1 0
c p weight 103 0.06611814736078972 0
c p weight -103 1 0
c p weight 104 -0.9978118011877675 0
c p weight -104 1 0
c p weight 110 1.0 0
c p weight -110 1 0
c p weight 111 0 0
c p weight -111 1 0
c p weight 114 0 0
c p weight -114 1 0
c p weight 115 1.0 0
c p weight -115 1 0
c p weight 118 -0.48664186183014163 0
c p weight -118 1 0
c p weight 119 -0.8736015672573472 0
c p weight -119 1 0
c p weight 122 0 0
c p weight -122 1 0
c p weight 123 1.0 0
c p weight -123 1 0
c p weight 126 -1.0 0
c p weight -126 1 0
c p weight 127 0 0
c p weight -127 1 0
c p weight 130 -0.3950720127546685 0
c p weight -130 1 0
c p weight 131 -0.9186501536156052 0
c p weight -131 1 0
c p weight 134 1.0 0
c p weight -134 1 0
c p weight 135 0 0
c p weight -135 1 0
c p weight 138 0 0
c p weight -138 1 0
c p weight 139 1.0 0
c p weight -139 1 0
c p weight 142 -0.8498712344720905 0
c p weight -142 1 0
c p weight 143 -0.5269904029646887 0
c p weight -143 1 0
c p weight 146 0 0
c p weight -146 1 0
c p weight 147 1.0 0
c p weight -147 1 0
c p weight 150 -1.0 0
c p weight -150 1 0
c p weight 151 0 0
c p weight -151 1 0
c p weight 154 0.9574284152496735 0
c p weight -154 1 0
c p weight 155 -0.2886707980944709 0
c p weight -155 1 0
c p weight 161 1.0 0
c p weight -161 1 0
c p weight 162 0 0
c p weight -162 1 0
c p weight 165 0 0
c p weight -165 1 0
c p weight 166 1.0 0
c p weight -166 1 0
c p weight 169 -0.9996923050643833 0
c p weight -169 1 0
c p weight 170 -0.02480514452809879 0
c p weight -170 1 0
c p weight 173 0 0
c p weight -173 1 0
c p weight 174 1.0 0
c p weight -174 1 0
c p weight 177 -1.0 0
c p weight -177 1 0
c p weight 178 0 0
c p weight -178 1 0
c p weight 181 0.3833854928283311 0
c p weight -181 1 0
c p weight 182 -0.9235884169308197 0
c p weight -182 1 0
c p weight 185 1.0 0
c p weight -185 1 0
c p weight 186 0 0
c p weight -186 1 0
c p weight 189 0 0
c p weight -189 1 0
c p weight 190 1.0 0
c p weight -190 1 0
c p weight 193 0.9970671759161157 0
c p weight -193 1 0
c p weight 194 0.0765313446285997 0
c p weight -194 1 0
c p weight 197 0 0
c p weight -197 1 0
c p weight 198 1.0 0
c p weight -198 1 0
c p weight 201 -1.0 0
c p weight -201 1 0
c p weight 202 0 0
c p weight -202 1 0
c p weight 205 -0.7602995870341702 0
c p weight -205 1 0
c p weight 206 -0.649572580975883 0
c p weight -206 1 0
6 -5 1 0
6 -5 2 0
-6 5 1 0
-6 5 2 0
6 -7 -5 0
-6 -7 5 0
6 7 5 -1 -2 0
-6 7 -5 -1 -2 0
7 1 -2 0
-7 1 2 0
-8 1 0
7 -8 -2 0
-7 -8 2 0
7 8 -1 2 0
-7 8 -1 -2 0
-9 1 0
7 -9 2 0
-7 -9 -2 0
7 9 -1 -2 0
-7 9 -1 2 0
10 11 -6 0
10 -6 7 0
-10 11 6 0
-10 6 7 0
10 -6 -1 0
-10 6 -1 0
10 -11 6 1 -7 0
-10 -11 -6 1 -7 0
11 -1 7 0
-11 1 7 0
-12 7 0
11 -12 -1 0
-11 -12 1 0
11 12 1 -7 0
-11 12 -1 -7 0
-13 7 0
11 -13 1 0
-11 -13 -1 0
11 13 -1 -7 0
-11 13 1 -7 0
14 -10 11 0
14 -10 7 0
-14 10 11 0
-14 10 7 0
14 -15 -10 0
-14 -15 10 0
14 15 10 -11 -7 0
-14 15 -10 -11 -7 0
15 11 -7 0
-15 11 7 0
-16 11 0
15 -16 -7 0
-15 -16 7 0
15 16 -11 7 0
-15 16 -11 -7 0
-17 11 0
15 -17 7 0
-15 -17 -7 0
15 17 -11 -7 0
-15 17 -11 7 0
18 19 -14 0
18 -14 15 0
-18 19 14 0
-18 14 15 0
18 -14 -11 0
-18 14 -11 0
18 -19 14 11 -15 0
-18 -19 -14 11 -15 0
19 -11 15 0
-19 11 15 0
-20 15 0
19 -20 -11 0
-19 -20 11 0
19 20 11 -15 0
-19 20 -11 -15 0
-21 15 0
19 -21 11 0
-19 -21 -11 0
19 21 -11 -15 0
-19 21 11 -15 0
22 -18 19 0
22 -18 15 0
-22 18 19 0
-22 18 15 0
22 -23 -18 0
-22 -23 18 0
22 23 18 -19 -15 0
-22 23 -18 -19 -15 0
23 19 -15 0
-23 19 15 0
-24 19 0
23 -24 -15 0
-23 -24 15 0
23 24 -19 15 0
-23 24 -19 -15 0
-25 19 0
23 -25 15 0
-23 -25 -15 0
23 25 -19 -15 0
-23 25 -19 15 0
26 -22 19 0
26 -22 23 0
-26 22 19 0
-26 22 23 0
26 -27 -22 0
-26 -27 22 0
26 27 22 -19 -23 0
-26 27 -22 -19 -23 0
27 19 -23 0
-27 19 23 0
-28 19 0
27 -28 -23 0
-27 -28 23 0
27 28 -19 23 0
-27 28 -19 -23 0
-29 19 0
27 -29 23 0
-27 -29 -23 0
27 29 -19 -23 0
-27 29 -19 23 0
30 -26 3 0
30 -26 4 0
-30 26 3 0
-30 26 4 0
30 -31 -26 0
-30 -31 26 0
30 31 26 -3 -4 0
-30 31 -26 -3 -4 0
31 3 -4 0
-31 3 4 0
-32 3 0
31 -32 -4 0
-31 -32 4 0
31 32 -3 4 0
-31 32 -3 -4 0
-33 3 0
31 -33 4 0
-31 -33 -4 0
31 33 -3 -4 0
-31 33 -3 4 0
34 35 -30 0
34 -30 31 0
-34 35 30 0
-34 30 31 0
34 -30 -3 0
-34 30 -3 0
34 -35 30 3 -31 0
-34 -35 -30 3 -31 0
35 -3 31 0
-35 3 31 0
-36 31 0
35 -36 -3 0
-35 -36 3 0
35 36 3 -31 0
-35 36 -3 -31 0
-37 31 0
35 -37 3 0
-35 -37 -3 0
35 37 -3 -31 0
-35 37 3 -31 0
38 -34 35 0
38 -34 31 0
-38 34 35 0
-38 34 31 0
38 -39 -34 0
-38 -39 34 0
38 39 34 -35 -31 0
-38 39 -34 -35 -31 0
39 35 -31 0
-39 35 31 0
-40 35 0
39 -40 -31 0
-39 -40 31 0
39 40 -35 31 0
-39 40 -35 -31 0
-41 35 0
39 -41 31 0
-39 -41 -31 0
39 41 -35 -31 0
-39 41 -35 31 0
42 43 -38 0
42 -38 39 0
-42 43 38 0
-42 38 39 0
42 -38 -35 0
-42 38 -35 0
42 -43 38 35 -39 0
-42 -43 -38 35 -39 0
43 -35 39 0
-43 35 39 0
-44 39 0
43 -44 -35 0
-43 -44 35 0
43 44 35 -39 0
-43 44 -35 -39 0
-45 39 0
43 -45 35 0
-43 -45 -35 0
43 45 -35 -39 0
-43 45 35 -39 0
46 -42 43 0
46 -42 39 0
-46 42 43 0
-46 42 39 0
46 -47 -42 0
-46 -47 42 0
46 47 42 -43 -39 0
-46 47 -42 -43 -39 0
47 43 -39 0
-47 43 39 0
-48 43 0
47 -48 -39 0
-47 -48 39 0
47 48 -43 39 0
-47 48 -43 -39 0
-49 43 0
47 -49 39 0
-47 -49 -39 0
47 49 -43 -39 0
-47 49 -43 39 0
50 -46 43 0
50 -46 47 0
-50 46 43 0
-50 46 47 0
50 -51 -46 0
-50 -51 46 0
50 51 46 -43 -47 0
-50 51 -46 -43 -47 0
51 43 -47 0
-51 43 47 0
-52 43 0
51 -52 -47 0
-51 -52 47 0
51 52 -43 47 0
-51 52 -43 -47 0
-53 43 0
51 -53 47 0
-51 -53 -47 0
51 53 -43 -47 0
-51 53 -43 47 0
54 -50 19 0
54 -50 51 0
-54 50 19 0
-54 50 51 0
54 -50 43 -27 0
54 -50 -43 27 0
-54 50 43 -27 0
-54 50 -43 27 0
54 50 -19 43 27 -51 0
54 50 -19 -43 -27 -51 0
-54 -50 -19 43 27 -51 0
-54 -50 -19 -43 -27 -51 0
56 19 -43 0
56 -19 43 0
-56 19 43 0
-56 -19 -43 0
55 27 -51 0
55 -27 51 0
-55 27 51 0
-55 -27 -51 0
57 -54 19 0
57 -54 55 0
-57 54 19 0
-57 54 55 0
57 -58 -54 0
-57 -58 54 0
57 58 54 -19 -55 0
-57 58 -54 -19 -55 0
58 19 -55 0
-58 19 55 0
-59 19 0
58 -59 -55 0
-58 -59 55 0
58 59 -19 55 0
-58 59 -19 -55 0
-60 19 0
58 -60 55 0
-58 -60 -55 0
58 60 -19 -55 0
-58 60 -19 55 0
61 62 -57 0
61 -57 58 0
-61 62 57 0
-61 57 58 0
61 -57 -19 0
-61 57 -19 0
61 -62 57 19 -58 0
-61 -62 -57 19 -58 0
62 -19 58 0
-62 19 58 0
-63 58 0
62 -63 -19 0
-62 -63 19 0
62 63 19 -58 0
-62 63 -19 -58 0
-64 58 0
62 -64 19 0
-62 -64 -19 0
62 64 -19 -58 0
-62 64 19 -58 0
65 -61 62 0
65 -61 58 0
-65 61 62 0
-65 61 58 0
65 -66 -61 0
-65 -66 61 0
65 66 61 -62 -58 0
-65 66 -61 -62 -58 0
66 62 -58 0
-66 62 58 0
-67 62 0
66 -67 -58 0
-66 -67 58 0
66 67 -62 58 0
-66 67 -62 -58 0
-68 62 0
66 -68 58 0
-66 -68 -58 0
66 68 -62 -58 0
-66 68 -62 58 0
69 70 -65 0
69 -65 66 0
-69 70 65 0
-69 65 66 0
69 -65 -62 0
-69 65 -62 0
69 -70 65 62 -66 0
-69 -70 -65 62 -66 0
70 -62 66 0
-70 62 66 0
-71 66 0
70 -71 -62 0
-70 -71 62 0
70 71 62 -66 0
-70 71 -62 -66 0
-72 66 0
70 -72 62 0
-70 -72 -62 0
70 72 -62 -66 0
-70 72 62 -66 0
73 -69 70 0
73 -69 66 0
-73 69 70 0
-73 69 66 0
73 -74 -69 0
-73 -74 69 0
73 74 69 -70 -66 0
-73 74 -69 -70 -66 0
74 70 -66 0
-74 70 66 0
-75 70 0
74 -75 -66 0
-74 -75 66 0
74 75 -70 66 0
-74 75 -70 -66 0
-76 70 0
74 -76 66 0
-74 -76 -66 0
74 76 -70 -66 0
-74 76 -70 66 0
77 -73 70 0
77 -73 74 0
-77 73 70 0
-77 73 74 0
77 -78 -73 0
-77 -78 73 0
77 78 73 -70 -74 0
-77 78 -73 -70 -74 0
78 70 -74 0
-78 70 74 0
-79 70 0
78 -79 -74 0
-78 -79 74 0
78 79 -70 74 0
-78 79 -70 -74 0
-80 70 0
78 -80 74 0
-78 -80 -74 0
78 80 -70 -74 0
-78 80 -70 74 0
81 -77 56 0
81 -77 51 0
-81 77 56 0
-81 77 51 0
81 -82 -77 0
-81 -82 77 0
81 82 77 -56 -51 0
-81 82 -77 -56 -51 0
82 56 -51 0
-82 56 51 0
-83 56 0
82 -83 -51 0
-82 -83 51 0
82 83 -56 51 0
-82 83 -56 -51 0
-84 56 0
82 -84 51 0
-82 -84 -51 0
82 84 -56 -51 0
-82 84 -56 51 0
85 86 -81 0
85 -81 82 0
-85 86 81 0
-85 81 82 0
85 -81 -56 0
-85 81 -56 0
85 -86 81 56 -82 0
-85 -86 -81 56 -82 0
86 -56 82 0
-86 56 82 0
-87 82 0
86 -87 -56 0
-86 -87 56 0
86 87 56 -82 0
-86 87 -56 -82 0
-88 82 0
86 -88 56 0
-86 -88 -56 0
86 88 -56 -82 0
-86 88 56 -82 0
89 -85 86 0
89 -85 82 0
-89 85 86 0
-89 85 82 0
89 -90 -85 0
-89 -90 85 0
89 90 85 -86 -82 0
-89 90 -85 -86 -82 0
90 86 -82 0
-90 86 82 0
-91 86 0
90 -91 -82 0
-90 -91 82 0
90 91 -86 82 0
-90 91 -86 -82 0
-92 86 0
90 -92 82 0
-90 -92 -82 0
90 92 -86 -82 0
-90 92 -86 82 0
93 94 -89 0
93 -89 90 0
-93 94 89 0
-93 89 90 0
93 -89 -86 0
-93 89 -86 0
93 -94 89 86 -90 0
-93 -94 -89 86 -90 0
94 -86 90 0
-94 86 90 0
-95 90 0
94 -95 -86 0
-94 -95 86 0
94 95 86 -90 0
-94 95 -86 -90 0
-96 90 0
94 -96 86 0
-94 -96 -86 0
94 96 -86 -90 0
-94 96 86 -90 0
97 -93 94 0
97 -93 90 0
-97 93 94 0
-97 93 90 0
97 -98 -93 0
-97 -98 93 0
97 98 93 -94 -90 0
-97 98 -93 -94 -90 0
98 94 -90 0
-98 94 90 0
-99 94 0
98 -99 -90 0
-98 -99 90 0
98 99 -94 90 0
-98 99 -94 -90 0
-100 94 0
98 -100 90 0
-98 -100 -90 0
98 100 -94 -90 0
-98 100 -94 90 0
101 -97 94 0
101 -97 98 0
-101 97 94 0
-101 97 98 0
101 -102 -97 0
-101 -102 97 0
101 102 97 -94 -98 0
-101 102 -97 -94 -98 0
102 94 -98 0
-102 94 98 0
-103 94 0
102 -103 -98 0
-102 -103 98 0
102 103 -94 98 0
-102 103 -94 -98 0
-104 94 0
102 -104 98 0
-102 -104 -98 0
102 104 -94 -98 0
-102 104 -94 98 0
105 -101 70 0
105 -101 102 0
-105 101 70 0
-105 101 102 0
105 -101 94 -78 0
105 -101 -94 78 0
-105 101 94 -78 0
-105 101 -94 78 0
105 101 -70 94 78 -102 0
105 101 -70 -94 -78 -102 0
-105 -101 -70 94 78 -102 0
-105 -101 -70 -94 -78 -102 0
107 70 -94 0
107 -70 94 0
-107 70 94 0
-107 -70 -94 0
106 78 -102 0
106 -78 102 0
-106 78 102 0
-106 -78 -102 0
108 -105 70 0
108 -105 106 0
-108 105 70 0
-108 105 106 0
108 -109 -105 0
-108 -109 105 0
108 109 105 -70 -106 0
-108 109 -105 -70 -106 0
109 70 -106 0
-109 70 106 0
-110 70 0
109 -110 -106 0
-109 -110 106 0
109 110 -70 106 0
-109 110 -70 -106 0
-111 70 0
109 -111 106 0
-109 -111 -106 0
109 111 -70 -106 0
-109 111 -70 106 0
112 113 -108 0
112 -108 109 0
-112 113 108 0
-112 108 109 0
112 -108 -70 0
-112 108 -70 0
112 -113 108 70 -109 0
-112 -113 -108 70 -109 0
113 -70 109 0
-113 70 109 0
-114 109 0
113 -114 -70 0
-113 -114 70 0
113 114 70 -109 0
-113 114 -70 -109 0
-115 109 0
113 -115 70 0
-113 -115 -70 0
113 115 -70 -109 0
-113 115 70 -109 0
116 -112 113 0
116 -112 109 0
-116 112 113 0
-116 112 109 0
116 -117 -112 0
-116 -117 112 0
116 117 112 -113 -109 0
-116 117 -112 -113 -109 0
117 113 -109 0
-117 113 109 0
-118 113 0
117 -118 -109 0
-117 -118 109 0
117 118 -113 109 0
-117 118 -113 -109 0
-119 113 0
117 -119 109 0
-117 -119 -109 0
117 119 -113 -109 0
-117 119 -113 109 0
120 121 -116 0
120 -116 117 0
-120 121 116 0
-120 116 117 0
120 -116 -113 0
-120 116 -113 0
120 -121 116 113 -117 0
-120 -121 -116 113 -117 0
121 -113 117 0
-121 113 117 0
-122 117 0
121 -122 -113 0
-121 -122 113 0
121 122 113 -117 0
-121 122 -113 -117 0
-123 117 0
121 -123 113 0
-121 -123 -113 0
121 123 -113 -117 0
-121 123 113 -117 0
124 -120 121 0
124 -120 117 0
-124 120 121 0
-124 120 117 0
124 -125 -120 0
-124 -125 120 0
124 125 120 -121 -117 0
-124 125 -120 -121 -117 0
125 121 -117 0
-125 121 117 0
-126 121 0
125 -126 -117 0
-125 -126 117 0
125 126 -121 117 0
-125 126 -121 -117 0
-127 121 0
125 -127 117 0
-125 -127 -117 0
125 127 -121 -117 0
-125 127 -121 117 0
128 -124 121 0
128 -124 125 0
-128 124 121 0
-128 124 125 0
128 -129 -124 0
-128 -129 124 0
128 129 124 -121 -125 0
-128 129 -124 -121 -125 0
129 121 -125 0
-129 121 125 0
-130 121 0
129 -130 -125 0
-129 -130 125 0
129 130 -121 125 0
-129 130 -121 -125 0
-131 121 0
129 -131 125 0
-129 -131 -125 0
129 131 -121 -125 0
-129 131 -121 125 0
132 -128 107 0
132 -128 102 0
-132 128 107 0
-132 128 102 0
132 -133 -128 0
-132 -133 128 0
132 133 128 -107 -102 0
-132 133 -128 -107 -102 0
133 107 -102 0
-133 107 102 0
-134 107 0
133 -134 -102 0
-133 -134 102 0
133 134 -107 102 0
-133 134 -107 -102 0
-135 107 0
133 -135 102 0
-133 -135 -102 0
133 135 -107 -102 0
-133 135 -107 102 0
136 137 -132 0
136 -132 133 0
-136 137 132 0
-136 132 133 0
136 -132 -107 0
-136 132 -107 0
136 -137 132 107 -133 0
-136 -137 -132 107 -133 0
137 -107 133 0
-137 107 133 0
-138 133 0
137 -138 -107 0
-137 -138 107 0
137 138 107 -133 0
-137 138 -107 -133 0
-139 133 0
137 -139 107 0
-137 -139 -107 0
137 139 -107 -133 0
-137 139 107 -133 0
140 -136 137 0
140 -136 133 0
-140 136 137 0
-140 136 133 0
140 -141 -136 0
-140 -141 136 0
140 141 136 -137 -133 0
-140 141 -136 -137 -133 0
141 137 -133 0
-141 137 133 0
-142 137 0
141 -142 -133 0
-141 -142 133 0
141 142 -137 133 0
-141 142 -137 -133 0
-143 137 0
141 -143 133 0
-141 -143 -133 0
141 143 -137 -133 0
-141 143 -137 133 0
144 145 -140 0
144 -140 141 0
-144 145 140 0
-144 140 141 0
144 -140 -137 0
-144 140 -137 0
144 -145 140 137 -141 0
-144 -145 -140 137 -141 0
145 -137 141 0
-145 137 141 0
-146 141 0
145 -146 -137 0
-145 -146 137 0
145 146 137 -141 0
-145 146 -137 -141 0
-147 141 0
145 -147 137 0
-145 -147 -137 0
145 147 -137 -141 0
-145 147 137 -141 0
148 -144 145 0
148 -144 141 0
-148 144 145 0
-148 144 141 0
148 -149 -144 0
-148 -149 144 0
148 149 144 -145 -141 0
-148 149 -144 -145 -141 0
149 145 -141 0
-149 145 141 0
-150 145 0
149 -150 -141 0
-149 -150 141 0
149 150 -145 141 0
-149 150 -145 -141 0
-151 145 0
149 -151 141 0
-149 -151 -141 0
149 151 -145 -141 0
-149 151 -145 141 0
152 -148 145 0
152 -148 149 0
-152 148 145 0
-152 148 149 0
152 -153 -148 0
-152 -153 148 0
152 153 148 -145 -149 0
-152 153 -148 -145 -149 0
153 145 -149 0
-153 145 149 0
-154 145 0
153 -154 -149 0
-153 -154 149 0
153 154 -145 149 0
-153 154 -145 -149 0
-155 145 0
153 -155 149 0
-153 -155 -149 0
153 155 -145 -149 0
-153 155 -145 149 0
156 -152 121 0
156 -152 153 0
-156 152 121 0
-156 152 153 0
156 -152 145 -129 0
156 -152 -145 129 0
-156 152 145 -129 0
-156 152 -145 129 0
156 152 -121 145 129 -153 0
156 152 -121 -145 -129 -153 0
-156 -152 -121 145 129 -153 0
-156 -152 -121 -145 -129 -153 0
158 121 -145 0
158 -121 145 0
-158 121 145 0
-158 -121 -145 0
157 129 -153 0
157 -129 153 0
-157 129 153 0
-157 -129 -153 0
159 -156 121 0
159 -156 157 0
-159 156 121 0
-159 156 157 0
159 -160 -156 0
-159 -160 156 0
159 160 156 -121 -157 0
-159 160 -156 -121 -157 0
160 121 -157 0
-160 121 157 0
-161 121 0
160 -161 -157 0
-160 -161 157 0
160 161 -121 157 0
-160 161 -121 -157 0
-162 121 0
160 -162 157 0
-160 -162 -157 0
160 162 -121 -157 0
-160 162 -121 157 0
163 164 -159 0
163 -159 160 0
-163 164 159 0
-163 159 160 0
163 -159 -121 0
-163 159 -121 0
163 -164 159 121 -160 0
-163 -164 -159 121 -160 0
164 -121 160 0
-164 121 160 0
-165 160 0
164 -165 -121 0
-164 -165 121 0
164 165 121 -160 0
-164 165 -121 -160 0
-166 160 0
164 -166 121 0
-164 -166 -121 0
164 166 -121 -160 0
-164 166 121 -160 0
167 -163 164 0
167 -163 160 0
-167 163 164 0
-167 163 160 0
167 -168 -163 0
-167 -168 163 0
167 168 163 -164 -160 0
-167 168 -163 -164 -160 0
168 164 -160 0
-168 164 160 0
-169 164 0
168 -169 -160 0
-168 -169 160 0
168 169 -164 160 0
-168 169 -164 -160 0
-170 164 0
168 -170 160 0
-168 -170 -160 0
168 170 -164 -160 0
-168 170 -164 160 0
171 172 -167 0
171 -167 168 0
-171 172 167 0
-171 167 168 0
171 -167 -164 0
-171 167 -164 0
171 -172 167 164 -168 0
-171 -172 -167 164 -168 0
172 -164 168 0
-172 164 168 0
-173 168 0
172 -173 -164 0
-172 -173 164 0
172 173 164 -168 0
-172 173 -164 -168 0
-174 168 0
172 -174 164 0
-172 -174 -164 0
172 174 -164 -168 0
-172 174 164 -168 0
175 -171 172 0
175 -171 168 0
-175 171 172 0
-175 171 168 0
175 -176 -171 0
-175 -176 171 0
175 176 171 -172 -168 0
-175 176 -171 -172 -168 0
176 172 -168 0
-176 172 168 0
-177 172 0
176 -177 -168 0
-176 -177 168 0
176 177 -172 168 0
-176 177 -172 -168 0
-178 172 0
176 -178 168 0
-176 -178 -168 0
176 178 -172 -168 0
-176 178 -172 168 0
179 -175 172 0
179 -175 176 0
-179 175 172 0
-179 175 176 0
179 -180 -175 0
-179 -180 175 0
179 180 175 -172 -176 0
-179 180 -175 -172 -176 0
180 172 -176 0
-180 172 176 0
-181 172 0
180 -181 -176 0
-180 -181 176 0
180 181 -172 176 0
-180 181 -172 -176 0
-182 172 0
180 -182 176 0
-180 -182 -176 0
180 182 -172 -176 0
-180 182 -172 176 0
183 -179 158 0
183 -179 153 0
-183 179 158 0
-183 179 153 0
183 -184 -179 0
-183 -184 179 0
183 184 179 -158 -153 0
-183 184 -179 -158 -153 0
184 158 -153 0
-184 158 153 0
-185 158 0
184 -185 -153 0
-184 -185 153 0
184 185 -158 153 0
-184 185 -158 -153 0
-186 158 0
184 -186 153 0
-184 -186 -153 0
184 186 -158 -153 0
-184 186 -158 153 0
187 188 -183 0
187 -183 184 0
-187 188 183 0
-187 183 184 0
187 -183 -158 0
-187 183 -158 0
187 -188 183 158 -184 0
-187 -188 -183 158 -184 0
188 -158 184 0
-188 158 184 0
-189 184 0
188 -189 -158 0
-188 -189 158 0
188 189 158 -184 0
-188 189 -158 -184 0
-190 184 0
188 -190 158 0
-188 -190 -158 0
188 190 -158 -184 0
-188 190 158 -184 0
191 -187 188 0
191 -187 184 0
-191 187 188 0
-191 187 184 0
191 -192 -187 0
-191 -192 187 0
191 192 187 -188 -184 0
-191 192 -187 -188 -184 0
192 188 -184 0
-192 188 184 0
-193 188 0
192 -193 -184 0
-192 -193 184 0
192 193 -188 184 0
-192 193 -188 -184 0
-194 188 0
192 -194 184 0
-192 -194 -184 0
192 194 -188 -184 0
-192 194 -188 184 0
195 196 -191 0
195 -191 192 0
-195 196 191 0
-195 191 192 0
195 -191 -188 0
-195 191 -188 0
195 -196 191 188 -192 0
-195 -196 -191 188 -192 0
196 -188 192 0
-196 188 192 0
-197 192 0
196 -197 -188 0
-196 -197 188 0
196 197 188 -192 0
-196 197 -188 -192 0
-198 192 0
196 -198 188 0
-196 -198 -188 0
196 198 -188 -192 0
-196 198 188 -192 0
199 -195 196 0
199 -195 192 0
-199 195 196 0
-199 195 192 0
199 -200 -195 0
-199 -200 195 0
199 200 195 -196 -192 0
-199 200 -195 -196 -192 0
200 196 -192 0
-200 196 192 0
-201 196 0
200 -201 -192 0
-200 -201 192 0
200 201 -196 192 0
-200 201 -196 -192 0
-202 196 0
200 -202 192 0
-200 -202 -192 0
200 202 -196 -192 0
-200 202 -196 192 0
203 -199 196 0
203 -199 200 0
-203 199 196 0
-203 199 200 0
203 -204 -199 0
-203 -204 199 0
203 204 199 -196 -200 0
-203 204 -199 -196 -200 0
204 196 -200 0
-204 196 200 0
-205 196 0
204 -205 -200 0
-204 -205 200 0
204 205 -196 200 0
-204 205 -196 -200 0
-206 196 0
204 -206 200 0
-204 -206 -200 0
204 206 -196 -200 0
-204 206 -196 200 0
